22 4
16 12 40 73 45 37 47 19 88 92 28 17 92 15 22 40 33 59 43 62 64 65
41 61 94 10 89 89 73 82 56 65 21 86 74 74 89 31 41 16 89 70 37 82
10 48 20 50 94 36 20 33 52 93 56 16 76 90 95 82 35 74 25 17 44 82
26 87 13 31 46 31 64 69 31 11 90 85 29 34 78 61 81 70 18 73 62 76
